








































































































13 29 8 41 44 43 10 
74 50 21 25 62 5 20 19 73 
42 11 32 39 17 12 31 
68 48 76 69 15 33 58 34 28 
16 18 55 35 3 71 7 70 
75 56 64 6 27 65 24 63 
46 30 72 14 26 45 53 66 0 
67 2 36 59 51 40 57 
61 52 49 9 54 
4 1 23 60 38 22 37 47 
